Route 1: 42 39 36 38 40 41 43 35 37
Route 2: 2 5 45 79 73 12 17
Route 3: 31 27 30 26 28 32 34 50 96
Route 4: 47 16 15 14 9 97 75 58
Route 5: 61 8 6 46 4 1 3
Route 6: 29 33 63 51 89 91
Route 7: 65 52 11 87 59 60 100
Route 8: 83 19 23 57 86 74 80
Route 9: 92 95 62 67 71 25
Route 10: 82 69 99 49 20 77
Route 11: 7 88 78 10 13 70
Route 12: 72 44 81 54 94 93
Route 13: 85 76 84 56 68
Route 14: 48 21 22 18 66 24
Route 15: 98 64 90 53 55
Vehicles: 15
Distance: 2062.46
